8204
36, 39, 40, 37, 38, 48, 24, 5, 15, 6, 4, 43, 33, 51, 11, 52, 14, 13, 47, 26, 27, 28, 12, 25, 46, 50, 20, 23, 21, 17, 7, 2, 42, 30, 29, 16, 44, 34, 35, 49, 32, 45, 19, 10, 9, 8, 41, 3, 18, 31, 22, 1
